NAME : instances/50-tsp/instance-5.tsp
COMMENT : No comment
TYPE : TSP
DIMENSION: 50
EDGE_WEIGHT_TYPE : EUC_2D
NODE_COORD_SECTION
1 1528 1033 
2 1439 331 
3 581 1834 
4 403 1149 
5 1165 761 
6 402 772 
7 216 1423 
8 1309 587 
9 773 1103 
10 646 460 
11 1186 613 
12 1794 133 
13 1851 822 
14 1218 1370 
15 113 584 
16 1079 1509 
17 445 1341 
18 1059 77 
19 1092 1970 
20 776 1515 
21 1971 516 
22 1633 705 
23 1491 1848 
24 913 1621 
25 476 1619 
26 1442 1081 
27 529 15 
28 1366 800 
29 1789 124 
30 178 268 
31 626 1336 
32 1264 195 
33 236 879 
34 1172 619 
35 162 1514 
36 416 710 
37 187 177 
38 848 1967 
39 1880 1653 
40 890 1868 
41 72 1828 
42 586 639 
43 1938 227 
44 212 1804 
45 1639 887 
46 1917 450 
47 970 1210 
48 576 585 
49 1419 1011 
50 504 596 
EOF
